242243 35998.7
64407.7 177360
1946.71 265473
58307.6 184383
172650 96801.5
66704 176842
104807 158086
145641 122367
20579.9 223613
189368 86735.1
218775 60295.2
16636.7 240436
80431.6 168529
61934.3 182743
150086 116796
68390.9 176342
40054 209537
68439.2 176316
38015.8 211722
4712.6 255329
159472 106744
169610 101108
235912 39441.2
112550 144180
163733 106714
133968 131350
191480 83614.4
120097 135783
14196.9 246619
55723.5 190749
139436 124190
107681 156501
118311 138133
121436 134894
227074 42542.8
117828 138502
188966 90645
133939 133350
204901 74612
225137 45876.4
120262 135480
217711 62466.4
238047 38021.3
141470 122459
89827.5 161166
194347 77733
89659 166773
120950 135207
215523 64904.6
205265 67156.2
108490 152548
